39757.44 0
0 5 573 460 459 458 457 456 455 454 439 440 453 452 461 462 463 571 572 6 7 8 9 10 11 12 13 14 15 16 17 18 19 20 568 569 570 474 473 472 471 470 469 468 467 466 465 464 496 497 499 500 501 498 517 520 494 495 518 519 502 503 504 516 515 514 522 521 523 526 525 524 493 492 491 490 528 529 530 531 532 533 488 489 486 487 535 534 230 231 233 234 235 236 232 223 224 222 221 220 218 219 193 192 191 190 226 225 189 227 228 229 186 188 187 182 183 185 184 194 195 196 197 198 199 200 201 180 181 179 178 177 176 540 538 539 537 536 484 485 483 481 482 475 476 480 479 477 478 548 549 550 559 558 560 561 562 563 564 565 566 567 27 26 25 24 21 23 22 28 29 31 30 32 33 34 35 36 37 38 40 41 39 42 43 44 47 48 49 46 45 555 556 557 554 553 552 551 101 102 100 99 98 96 95 97 94 93 91 92 90 89 88 87 86 85 84 51 50 52 54 53 55 56 83 82 57 58 81 59 60 61 79 80 78 62 63 64 76 77 75 74 73 119 118 120 121 122 123 71 72 65 66 67 68 70 69 124 138 137 130 129 128 127 125 126 117 116 115 106 105 104 103 547 546 545 544 543 541 542 107 109 108 173 174 175 172 170 171 169 167 166 164 163 168 162 160 161 113 112 111 110 114 131 132 133 134 135 136 139 140 141 151 150 149 152 148 147 146 142 143 144 145 158 157 153 156 159 155 154 165 202 204 203 208 207 206 205 209 210 211 212 213 214 215 217 216 246 247 245 244 243 240 239 238 237 511 512 527 513 510 509 508 507 506 505 308 307 305 306 304 303 302 301 242 241 300 299 258 259 257 256 248 249 250 251 252 254 253 255 260 261 262 263 264 265 266 298 297 296 295 294 293 270 269 268 267 271 272 273 274 275 292 291 330 331 332 333 288 289 290 276 277 278 279 282 281 280 287 286 285 284 283 334 335 336 337 338 339 340 341 344 343 342 366 329 328 325 326 327 367 365 368 369 370 372 371 398 397 394 393 391 392 390 389 388 387 386 382 385 408 407 406 399 400 404 405 409 384 383 410 411 412 403 401 402 356 355 353 354 357 358 348 347 345 346 364 363 362 361 360 359 349 350 351 352 415 416 414 413 417 418 419 420 421 422 423 424 425 426 427 428 429 430 432 431 381 380 379 378 377 376 314 315 374 375 395 396 373 322 323 324 321 320 319 318 317 316 313 309 310 311 312 451 450 441 449 448 447 446 442 445 444 443 438 436 435 434 433 437 3 2 1 4